# Objective value = 7
y_0_0_1 0
y_1_0_1 0
y_2_0_1 0
y_3_0_1 0
y_4_0_1 0
y_5_0_1 0
y_5_0_2 0
y_5_1_2 0
y_6_0_1 0
y_6_0_2 0
y_6_1_2 0
y_7_0_1 0
y_7_0_2 0
y_7_0_3 0
y_7_0_4 0
y_7_1_2 0
y_7_1_3 0
y_7_1_4 0
y_7_2_3 0
y_7_2_4 0
y_7_3_4 0
y_8_0_1 0
y_8_0_2 0
y_8_0_3 0
y_8_0_4 0
y_8_1_2 0
y_8_1_3 0
y_8_1_4 0
y_8_2_3 0
y_8_2_4 0
y_8_3_4 0
y_9_0_1 0
y_9_0_2 0
y_9_0_3 0
y_9_0_4 0
y_9_1_2 0
y_9_1_3 0
y_9_1_4 0
y_9_2_3 0
y_9_2_4 0
y_9_3_4 0
y_10_0_1 0
y_10_0_2 0
y_10_0_3 0
y_10_0_4 0
y_10_1_2 0
y_10_1_3 0
y_10_1_4 0
y_10_2_3 0
y_10_2_4 0
y_10_3_4 0
y_11_0_1 0
y_11_0_2 0
y_11_0_3 0
y_11_0_4 0
y_11_0_5 0
y_11_1_2 0
y_11_1_3 0
y_11_1_4 0
y_11_1_5 0
y_11_2_3 0
y_11_2_4 0
y_11_2_5 0
y_11_3_4 0
y_11_3_5 0
y_11_4_5 0
y_12_0_1 0
y_12_0_2 0
y_12_0_3 0
y_12_0_4 0
y_12_0_5 0
y_12_1_2 0
y_12_1_3 0
y_12_1_4 0
y_12_1_5 0
y_12_2_3 0
y_12_2_4 0
y_12_2_5 0
y_12_3_4 0
y_12_3_5 0
y_12_4_5 0
y_13_0_1 0
y_13_0_2 1
y_13_0_3 0
y_13_0_4 0
y_13_0_5 0
y_13_1_2 0
y_13_1_3 0
y_13_1_4 0
y_13_1_5 0
y_13_2_3 0
y_13_2_4 0
y_13_2_5 0
y_13_3_4 0
y_13_3_5 0
y_13_4_5 0
y_14_0_1 0
y_14_0_2 0
y_14_0_3 0
y_14_0_4 0
y_14_0_5 0
y_14_0_6 0
y_14_1_2 0
y_14_1_3 0
y_14_1_4 0
y_14_1_5 0
y_14_1_6 0
y_14_2_3 0
y_14_2_4 0
y_14_2_5 0
y_14_2_6 0
y_14_3_4 0
y_14_3_5 0
y_14_3_6 0
y_14_4_5 0
y_14_4_6 0
y_14_5_6 0
y_15_0_1 0
y_15_0_2 0
y_15_0_3 0
y_15_0_4 0
y_15_0_5 0
y_15_0_6 0
y_15_1_2 0
y_15_1_3 0
y_15_1_4 0
y_15_1_5 0
y_15_1_6 0
y_15_2_3 0
y_15_2_4 0
y_15_2_5 0
y_15_2_6 0
y_15_3_4 0
y_15_3_5 0
y_15_3_6 0
y_15_4_5 0
y_15_4_6 0
y_15_5_6 0
y_16_0_1 0
y_16_0_2 0
y_16_0_3 0
y_16_0_4 0
y_16_0_5 0
y_16_0_6 0
y_16_1_2 0
y_16_1_3 0
y_16_1_4 0
y_16_1_5 0
y_16_1_6 0
y_16_2_3 0
y_16_2_4 0
y_16_2_5 0
y_16_2_6 0
y_16_3_4 0
y_16_3_5 0
y_16_3_6 0
y_16_4_5 0
y_16_4_6 0
y_16_5_6 0
y_17_0_1 0
y_17_0_2 0
y_17_0_3 0
y_17_0_4 0
y_17_0_5 0
y_17_0_6 0
y_17_1_2 0
y_17_1_3 0
y_17_1_4 0
y_17_1_5 0
y_17_1_6 0
y_17_2_3 0
y_17_2_4 0
y_17_2_5 0
y_17_2_6 0
y_17_3_4 0
y_17_3_5 0
y_17_3_6 0
y_17_4_5 0
y_17_4_6 0
y_17_5_6 0
y_18_0_1 0
y_18_0_2 0
y_18_0_3 0
y_18_0_4 0
y_18_0_5 0
y_18_0_6 0
y_18_1_2 0
y_18_1_3 0
y_18_1_4 0
y_18_1_5 0
y_18_1_6 0
y_18_2_3 0
y_18_2_4 0
y_18_2_5 0
y_18_2_6 0
y_18_3_4 1
y_18_3_5 0
y_18_3_6 0
y_18_4_5 0
y_18_4_6 0
y_18_5_6 0
y_19_0_1 0
y_19_0_2 0
y_19_0_3 0
y_19_0_4 0
y_19_0_5 0
y_19_0_6 0
y_19_0_7 0
y_19_1_2 0
y_19_1_3 0
y_19_1_4 0
y_19_1_5 0
y_19_1_6 0
y_19_1_7 0
y_19_2_3 0
y_19_2_4 0
y_19_2_5 0
y_19_2_6 0
y_19_2_7 0
y_19_3_4 0
y_19_3_5 0
y_19_3_6 0
y_19_3_7 0
y_19_4_5 0
y_19_4_6 0
y_19_4_7 0
y_19_5_6 0
y_19_5_7 0
y_19_6_7 0
y_20_0_1 0
y_20_0_2 0
y_20_0_3 0
y_20_0_4 0
y_20_0_5 0
y_20_0_6 0
y_20_0_7 0
y_20_1_2 0
y_20_1_3 0
y_20_1_4 0
y_20_1_5 0
y_20_1_6 0
y_20_1_7 0
y_20_2_3 0
y_20_2_4 0
y_20_2_5 0
y_20_2_6 0
y_20_2_7 0
y_20_3_4 0
y_20_3_5 0
y_20_3_6 0
y_20_3_7 0
y_20_4_5 0
y_20_4_6 0
y_20_4_7 0
y_20_5_6 0
y_20_5_7 0
y_20_6_7 0
y_21_0_1 0
y_21_0_2 0
y_21_0_3 0
y_21_0_4 0
y_21_0_5 0
y_21_0_6 0
y_21_0_7 0
y_21_1_2 0
y_21_1_3 0
y_21_1_4 0
y_21_1_5 0
y_21_1_6 0
y_21_1_7 0
y_21_2_3 0
y_21_2_4 0
y_21_2_5 0
y_21_2_6 0
y_21_2_7 0
y_21_3_4 0
y_21_3_5 0
y_21_3_6 0
y_21_3_7 0
y_21_4_5 0
y_21_4_6 0
y_21_4_7 0
y_21_5_6 0
y_21_5_7 0
y_21_6_7 0
y_22_0_1 0
y_22_0_2 0
y_22_0_4 0
y_22_0_5 0
y_22_0_6 0
y_22_0_7 0
y_22_1_2 0
y_22_1_4 0
y_22_1_5 0
y_22_1_6 0
y_22_1_7 0
y_22_2_4 0
y_22_2_5 0
y_22_2_6 0
y_22_2_7 0
y_22_4_5 0
y_22_4_6 0
y_22_4_7 0
y_22_5_6 0
y_22_5_7 0
y_22_6_7 0
y_23_0_1 0
y_23_0_2 0
y_23_0_5 0
y_23_0_6 0
y_23_0_7 0
y_23_0_8 0
y_23_1_2 0
y_23_1_5 0
y_23_1_6 0
y_23_1_7 0
y_23_1_8 0
y_23_2_5 0
y_23_2_6 0
y_23_2_7 0
y_23_2_8 0
y_23_5_6 0
y_23_5_7 0
y_23_5_8 0
y_23_6_7 0
y_23_6_8 0
y_23_7_8 0
y_24_0_1 0
y_24_0_2 0
y_24_0_5 0
y_24_0_6 0
y_24_0_7 0
y_24_0_8 0
y_24_1_2 0
y_24_1_5 0
y_24_1_6 0
y_24_1_7 0
y_24_1_8 0
y_24_2_5 0
y_24_2_6 0
y_24_2_7 0
y_24_2_8 0
y_24_5_6 0
y_24_5_7 0
y_24_5_8 0
y_24_6_7 0
y_24_6_8 0
y_24_7_8 0
y_25_0_1 0
y_25_0_2 0
y_25_0_5 0
y_25_0_6 0
y_25_0_7 0
y_25_0_8 0
y_25_1_2 0
y_25_1_5 0
y_25_1_6 0
y_25_1_7 0
y_25_1_8 0
y_25_2_5 0
y_25_2_6 0
y_25_2_7 0
y_25_2_8 0
y_25_5_6 0
y_25_5_7 0
y_25_5_8 0
y_25_6_7 0
y_25_6_8 0
y_25_7_8 0
y_26_0_1 0
y_26_0_2 0
y_26_0_6 0
y_26_0_7 0
y_26_0_8 0
y_26_1_2 0
y_26_1_6 0
y_26_1_7 0
y_26_1_8 0
y_26_2_6 0
y_26_2_7 0
y_26_2_8 0
y_26_6_7 0
y_26_6_8 0
y_26_7_8 0
y_27_0_1 0
y_27_0_2 0
y_27_0_6 0
y_27_0_7 0
y_27_0_8 0
y_27_1_2 0
y_27_1_6 0
y_27_1_7 0
y_27_1_8 0
y_27_2_6 0
y_27_2_7 0
y_27_2_8 0
y_27_6_7 0
y_27_6_8 0
y_27_7_8 0
y_28_0_1 0
y_28_0_2 0
y_28_0_6 0
y_28_0_7 0
y_28_0_8 0
y_28_1_2 0
y_28_1_6 0
y_28_1_7 0
y_28_1_8 0
y_28_2_6 0
y_28_2_7 0
y_28_2_8 0
y_28_6_7 0
y_28_6_8 0
y_28_7_8 0
y_29_0_1 0
y_29_0_2 0
y_29_0_6 0
y_29_0_7 0
y_29_0_8 0
y_29_1_2 0
y_29_1_6 0
y_29_1_7 0
y_29_1_8 0
y_29_2_6 0
y_29_2_7 0
y_29_2_8 0
y_29_6_7 0
y_29_6_8 0
y_29_7_8 0
y_30_0_1 0
y_30_0_2 0
y_30_0_6 0
y_30_0_7 0
y_30_0_8 0
y_30_1_2 0
y_30_1_6 0
y_30_1_7 0
y_30_1_8 0
y_30_2_6 0
y_30_2_7 0
y_30_2_8 0
y_30_6_7 0
y_30_6_8 1
y_30_7_8 0
y_31_0_1 0
y_31_0_2 0
y_31_0_6 0
y_31_0_7 0
y_31_0_8 0
y_31_1_2 0
y_31_1_6 0
y_31_1_7 0
y_31_1_8 0
y_31_2_6 0
y_31_2_7 0
y_31_2_8 0
y_31_6_7 0
y_31_6_8 0
y_31_7_8 0
y_32_0_1 0
y_32_0_2 0
y_32_0_6 0
y_32_0_7 0
y_32_0_8 0
y_32_1_2 0
y_32_1_6 0
y_32_1_7 0
y_32_1_8 0
y_32_2_6 0
y_32_2_7 0
y_32_2_8 0
y_32_6_7 0
y_32_6_8 0
y_32_7_8 0
y_33_0_1 0
y_33_0_2 0
y_33_0_6 0
y_33_0_7 0
y_33_0_8 0
y_33_1_2 0
y_33_1_6 0
y_33_1_7 0
y_33_1_8 0
y_33_2_6 0
y_33_2_7 0
y_33_2_8 0
y_33_6_7 0
y_33_6_8 0
y_33_7_8 0
y_34_0_1 0
y_34_0_2 0
y_34_0_6 0
y_34_0_7 0
y_34_0_8 0
y_34_1_2 0
y_34_1_6 0
y_34_1_7 0
y_34_1_8 0
y_34_2_6 0
y_34_2_7 0
y_34_2_8 0
y_34_6_7 0
y_34_6_8 0
y_34_7_8 0
y_35_0_1 0
y_35_0_2 0
y_35_0_6 0
y_35_0_7 0
y_35_0_8 0
y_35_1_2 0
y_35_1_6 1
y_35_1_7 1
y_35_1_8 0
y_35_2_6 0
y_35_2_7 0
y_35_2_8 0
y_35_6_7 1
y_35_6_8 0
y_35_7_8 1
y_36_0_1 0
y_36_0_2 0
y_36_0_6 0
y_36_0_8 0
y_36_1_2 0
y_36_1_6 0
y_36_1_8 0
y_36_2_6 0
y_36_2_8 0
y_36_6_8 0
y_37_1_2 0
y_37_1_8 0
y_37_2_8 0
y_38_1_2 0
y_38_1_8 0
y_38_2_8 0
y_39_1_8 0
x_0_0_1 1
x_1_0_1 1
x_2_0_1 1
x_3_0_1 1
x_4_0_1 1
x_5_0_1 1
x_6_0_1 1
x_5_0_2 0
x_6_0_2 0
x_5_1_2 0
x_6_1_2 0
x_7_0_1 1
x_7_0_2 0
x_7_1_2 0
x_8_0_1 1
x_8_0_2 0
x_7_0_3 1
x_8_0_3 1
x_7_0_4 1
x_8_0_4 1
x_8_1_2 0
x_7_1_3 1
x_8_1_3 1
x_7_1_4 1
x_8_1_4 1
x_7_2_3 1
x_8_2_3 1
x_7_2_4 1
x_8_2_4 1
x_7_3_4 1
x_8_3_4 1
x_9_0_1 1
x_9_0_2 0
x_9_0_3 1
x_9_0_4 1
x_9_1_2 0
x_9_1_3 1
x_9_1_4 1
x_9_2_3 1
x_9_2_4 1
x_9_3_4 1
x_10_0_1 1
x_10_0_2 0
x_10_0_3 1
x_10_0_4 1
x_10_1_2 0
x_10_1_3 1
x_10_1_4 1
x_10_2_3 1
x_10_2_4 1
x_10_3_4 1
x_11_0_1 1
x_11_0_2 0
x_11_0_3 1
x_11_0_4 1
x_11_1_2 0
x_11_1_3 1
x_11_1_4 1
x_11_2_3 1
x_11_2_4 1
x_11_3_4 1
x_12_0_1 1
x_12_0_2 0
x_12_0_3 1
x_12_0_4 1
x_11_0_5 1
x_12_0_5 1
x_12_1_2 0
x_12_1_3 1
x_12_1_4 1
x_11_1_5 1
x_12_1_5 1
x_12_2_3 1
x_12_2_4 1
x_11_2_5 1
x_12_2_5 1
x_12_3_4 1
x_11_3_5 1
x_12_3_5 1
x_11_4_5 1
x_12_4_5 1
x_13_0_1 1
x_13_0_2 0
x_13_0_3 1
x_13_0_4 1
x_13_0_5 1
x_13_1_2 0
x_13_1_3 1
x_13_1_4 1
x_13_1_5 1
x_13_2_3 1
x_13_2_4 1
x_13_2_5 1
x_13_3_4 1
x_13_3_5 1
x_13_4_5 1
x_14_0_1 1
x_14_0_2 1
x_14_0_3 1
x_14_0_4 1
x_14_0_5 1
x_14_1_2 0
x_14_1_3 1
x_14_1_4 1
x_14_1_5 1
x_14_2_3 1
x_14_2_4 1
x_14_2_5 1
x_14_3_4 1
x_14_3_5 1
x_14_4_5 1
x_15_0_1 1
x_15_0_2 1
x_15_0_3 1
x_15_0_4 1
x_15_0_5 1
x_14_0_6 1
x_15_0_6 1
x_15_1_2 0
x_15_1_3 1
x_15_1_4 1
x_15_1_5 1
x_14_1_6 1
x_15_1_6 1
x_15_2_3 1
x_15_2_4 1
x_15_2_5 1
x_14_2_6 1
x_15_2_6 1
x_15_3_4 1
x_15_3_5 1
x_14_3_6 1
x_15_3_6 1
x_15_4_5 1
x_14_4_6 1
x_15_4_6 1
x_14_5_6 1
x_15_5_6 1
x_16_0_1 1
x_16_0_2 1
x_16_0_3 1
x_16_0_4 1
x_16_0_5 1
x_16_0_6 1
x_16_1_2 0
x_16_1_3 1
x_16_1_4 1
x_16_1_5 1
x_16_1_6 1
x_16_2_3 1
x_16_2_4 1
x_16_2_5 1
x_16_2_6 1
x_16_3_4 1
x_16_3_5 1
x_16_3_6 1
x_16_4_5 1
x_16_4_6 1
x_16_5_6 1
x_17_0_1 1
x_17_0_2 1
x_17_0_3 1
x_17_0_4 1
x_17_0_5 1
x_17_0_6 1
x_17_1_2 0
x_17_1_3 1
x_17_1_4 1
x_17_1_5 1
x_17_1_6 1
x_17_2_3 1
x_17_2_4 1
x_17_2_5 1
x_17_2_6 1
x_17_3_4 1
x_17_3_5 1
x_17_3_6 1
x_17_4_5 1
x_17_4_6 1
x_17_5_6 1
x_18_0_1 1
x_18_0_2 1
x_18_0_3 1
x_18_0_4 1
x_18_0_5 1
x_18_0_6 1
x_18_1_2 0
x_18_1_3 1
x_18_1_4 1
x_18_1_5 1
x_18_1_6 1
x_18_2_3 1
x_18_2_4 1
x_18_2_5 1
x_18_2_6 1
x_18_3_4 1
x_18_3_5 1
x_18_3_6 1
x_18_4_5 1
x_18_4_6 1
x_18_5_6 1
x_19_0_1 1
x_19_0_2 1
x_19_0_3 1
x_19_0_4 1
x_19_0_5 1
x_19_0_6 1
x_19_1_2 0
x_19_1_3 1
x_19_1_4 1
x_19_1_5 1
x_19_1_6 1
x_19_2_3 1
x_19_2_4 1
x_19_2_5 1
x_19_2_6 1
x_19_3_4 0
x_19_3_5 1
x_19_3_6 1
x_19_4_5 1
x_19_4_6 1
x_19_5_6 1
x_20_0_1 1
x_20_0_2 1
x_20_0_3 1
x_20_0_4 1
x_20_0_5 1
x_20_0_6 1
x_19_0_7 1
x_20_0_7 1
x_20_1_2 0
x_20_1_3 1
x_20_1_4 1
x_20_1_5 1
x_20_1_6 1
x_19_1_7 1
x_20_1_7 1
x_20_2_3 1
x_20_2_4 1
x_20_2_5 1
x_20_2_6 1
x_19_2_7 1
x_20_2_7 1
x_20_3_4 0
x_20_3_5 1
x_20_3_6 1
x_19_3_7 1
x_20_3_7 1
x_20_4_5 1
x_20_4_6 1
x_19_4_7 1
x_20_4_7 1
x_20_5_6 1
x_19_5_7 1
x_20_5_7 1
x_19_6_7 1
x_20_6_7 1
x_21_0_1 1
x_21_0_2 1
x_21_0_3 1
x_21_0_4 1
x_21_0_5 1
x_21_0_6 1
x_21_0_7 1
x_21_1_2 0
x_21_1_3 1
x_21_1_4 1
x_21_1_5 1
x_21_1_6 1
x_21_1_7 1
x_21_2_3 1
x_21_2_4 1
x_21_2_5 1
x_21_2_6 1
x_21_2_7 1
x_21_3_4 0
x_21_3_5 1
x_21_3_6 1
x_21_3_7 1
x_21_4_5 1
x_21_4_6 1
x_21_4_7 1
x_21_5_6 1
x_21_5_7 1
x_21_6_7 1
x_22_0_1 1
x_22_0_2 1
x_22_0_3 1
x_22_0_4 1
x_22_0_5 1
x_22_0_6 1
x_22_0_7 1
x_22_1_2 0
x_22_1_3 1
x_22_1_4 1
x_22_1_5 1
x_22_1_6 1
x_22_1_7 1
x_22_2_3 1
x_22_2_4 1
x_22_2_5 1
x_22_2_6 1
x_22_2_7 1
x_22_3_4 0
x_22_3_5 1
x_22_3_6 1
x_22_3_7 1
x_22_4_5 1
x_22_4_6 1
x_22_4_7 1
x_22_5_6 1
x_22_5_7 1
x_22_6_7 1
x_23_0_1 1
x_23_0_2 1
x_23_0_4 1
x_23_0_5 1
x_23_0_6 1
x_23_0_7 1
x_23_1_2 0
x_23_1_4 1
x_23_1_5 1
x_23_1_6 1
x_23_1_7 1
x_23_2_4 1
x_23_2_5 1
x_23_2_6 1
x_23_2_7 1
x_23_4_5 1
x_23_4_6 1
x_23_4_7 1
x_23_5_6 1
x_23_5_7 1
x_23_6_7 1
x_24_0_1 1
x_24_0_2 1
x_24_0_5 1
x_24_0_6 1
x_24_0_7 1
x_23_0_8 1
x_24_0_8 1
x_24_1_2 0
x_24_1_5 1
x_24_1_6 1
x_24_1_7 1
x_23_1_8 1
x_24_1_8 1
x_24_2_5 1
x_24_2_6 1
x_24_2_7 1
x_23_2_8 1
x_24_2_8 1
x_24_5_6 1
x_24_5_7 1
x_23_5_8 0
x_24_5_8 0
x_24_6_7 1
x_23_6_8 0
x_24_6_8 0
x_23_7_8 0
x_24_7_8 0
x_25_0_1 1
x_25_0_2 1
x_25_0_5 1
x_25_0_6 1
x_25_0_7 1
x_25_0_8 1
x_25_1_2 0
x_25_1_5 1
x_25_1_6 1
x_25_1_7 1
x_25_1_8 1
x_25_2_5 1
x_25_2_6 1
x_25_2_7 1
x_25_2_8 1
x_25_5_6 1
x_25_5_7 1
x_25_5_8 0
x_25_6_7 1
x_25_6_8 0
x_25_7_8 0
x_26_0_1 1
x_26_0_2 1
x_26_0_5 1
x_26_0_6 1
x_26_0_7 1
x_26_0_8 1
x_26_1_2 0
x_26_1_5 1
x_26_1_6 1
x_26_1_7 1
x_26_1_8 1
x_26_2_5 1
x_26_2_6 1
x_26_2_7 1
x_26_2_8 1
x_26_5_6 1
x_26_5_7 1
x_26_5_8 0
x_26_6_7 1
x_26_6_8 0
x_26_7_8 0
x_27_0_1 1
x_27_0_2 1
x_27_0_6 1
x_27_0_7 1
x_27_0_8 1
x_27_1_2 0
x_27_1_6 1
x_27_1_7 1
x_27_1_8 1
x_27_2_6 1
x_27_2_7 1
x_27_2_8 1
x_27_6_7 1
x_27_6_8 0
x_27_7_8 0
x_28_0_1 1
x_28_0_2 1
x_28_0_6 1
x_28_0_7 1
x_28_0_8 1
x_28_1_2 0
x_28_1_6 1
x_28_1_7 1
x_28_1_8 1
x_28_2_6 1
x_28_2_7 1
x_28_2_8 1
x_28_6_7 1
x_28_6_8 0
x_28_7_8 0
x_29_0_1 1
x_29_0_2 1
x_29_0_6 1
x_29_0_7 1
x_29_0_8 1
x_29_1_2 0
x_29_1_6 1
x_29_1_7 1
x_29_1_8 1
x_29_2_6 1
x_29_2_7 1
x_29_2_8 1
x_29_6_7 1
x_29_6_8 0
x_29_7_8 0
x_30_0_1 1
x_30_0_2 1
x_30_0_6 1
x_30_0_7 1
x_30_0_8 1
x_30_1_2 0
x_30_1_6 1
x_30_1_7 1
x_30_1_8 1
x_30_2_6 1
x_30_2_7 1
x_30_2_8 1
x_30_6_7 1
x_30_6_8 0
x_30_7_8 0
x_31_0_1 1
x_31_0_2 1
x_31_0_6 1
x_31_0_7 1
x_31_0_8 1
x_31_1_2 0
x_31_1_6 1
x_31_1_7 1
x_31_1_8 1
x_31_2_6 1
x_31_2_7 1
x_31_2_8 1
x_31_6_7 1
x_31_6_8 1
x_31_7_8 0
x_32_0_1 1
x_32_0_2 1
x_32_0_6 1
x_32_0_7 1
x_32_0_8 1
x_32_1_2 0
x_32_1_6 1
x_32_1_7 1
x_32_1_8 1
x_32_2_6 1
x_32_2_7 1
x_32_2_8 1
x_32_6_7 1
x_32_6_8 1
x_32_7_8 0
x_33_0_1 1
x_33_0_2 1
x_33_0_6 1
x_33_0_7 1
x_33_0_8 1
x_33_1_2 0
x_33_1_6 1
x_33_1_7 1
x_33_1_8 1
x_33_2_6 1
x_33_2_7 1
x_33_2_8 1
x_33_6_7 1
x_33_6_8 1
x_33_7_8 0
x_34_0_1 1
x_34_0_2 1
x_34_0_6 1
x_34_0_7 1
x_34_0_8 1
x_34_1_2 0
x_34_1_6 1
x_34_1_7 1
x_34_1_8 1
x_34_2_6 1
x_34_2_7 1
x_34_2_8 1
x_34_6_7 1
x_34_6_8 1
x_34_7_8 0
x_35_0_1 1
x_35_0_2 1
x_35_0_6 1
x_35_0_7 1
x_35_0_8 1
x_35_1_2 0
x_35_1_6 1
x_35_1_7 1
x_35_1_8 1
x_35_2_6 1
x_35_2_7 1
x_35_2_8 1
x_35_6_7 1
x_35_6_8 1
x_35_7_8 0
x_36_0_1 1
x_36_0_2 1
x_36_0_6 1
x_36_0_7 1
x_36_0_8 1
x_36_1_2 0
x_36_1_6 0
x_36_1_7 0
x_36_1_8 1
x_36_2_6 1
x_36_2_7 1
x_36_2_8 1
x_36_6_7 0
x_36_6_8 1
x_36_7_8 1
x_37_0_1 1
x_37_0_2 1
x_37_0_6 1
x_37_0_8 1
x_37_1_2 0
x_37_1_6 0
x_37_1_8 1
x_37_2_6 1
x_37_2_8 1
x_37_6_8 1
x_38_1_2 0
x_38_1_8 1
x_38_2_8 1
x_39_1_2 0
x_39_1_8 1
x_39_2_8 1
x_40_1_8 1
x_0_1_0 0
x_1_1_0 0
x_2_1_0 0
x_3_1_0 0
x_4_1_0 0
x_5_1_0 0
x_5_2_0 1
x_5_2_1 1
x_6_1_0 0
x_6_2_0 1
x_6_2_1 1
x_7_1_0 0
x_7_2_0 1
x_7_3_0 0
x_7_4_0 0
x_7_2_1 1
x_7_3_1 0
x_7_4_1 0
x_7_3_2 0
x_7_4_2 0
x_7_4_3 0
x_8_1_0 0
x_8_2_0 1
x_8_3_0 0
x_8_4_0 0
x_8_2_1 1
x_8_3_1 0
x_8_4_1 0
x_8_3_2 0
x_8_4_2 0
x_8_4_3 0
x_9_1_0 0
x_9_2_0 1
x_9_3_0 0
x_9_4_0 0
x_9_2_1 1
x_9_3_1 0
x_9_4_1 0
x_9_3_2 0
x_9_4_2 0
x_9_4_3 0
x_10_1_0 0
x_10_2_0 1
x_10_3_0 0
x_10_4_0 0
x_10_2_1 1
x_10_3_1 0
x_10_4_1 0
x_10_3_2 0
x_10_4_2 0
x_10_4_3 0
x_11_1_0 0
x_11_2_0 1
x_11_3_0 0
x_11_4_0 0
x_11_5_0 0
x_11_2_1 1
x_11_3_1 0
x_11_4_1 0
x_11_5_1 0
x_11_3_2 0
x_11_4_2 0
x_11_5_2 0
x_11_4_3 0
x_11_5_3 0
x_11_5_4 0
x_12_1_0 0
x_12_2_0 1
x_12_3_0 0
x_12_4_0 0
x_12_5_0 0
x_12_2_1 1
x_12_3_1 0
x_12_4_1 0
x_12_5_1 0
x_12_3_2 0
x_12_4_2 0
x_12_5_2 0
x_12_4_3 0
x_12_5_3 0
x_12_5_4 0
x_13_1_0 0
x_13_2_0 1
x_13_3_0 0
x_13_4_0 0
x_13_5_0 0
x_13_2_1 1
x_13_3_1 0
x_13_4_1 0
x_13_5_1 0
x_13_3_2 0
x_13_4_2 0
x_13_5_2 0
x_13_4_3 0
x_13_5_3 0
x_13_5_4 0
x_14_1_0 0
x_14_2_0 0
x_14_3_0 0
x_14_4_0 0
x_14_5_0 0
x_14_6_0 0
x_14_2_1 1
x_14_3_1 0
x_14_4_1 0
x_14_5_1 0
x_14_6_1 0
x_14_3_2 0
x_14_4_2 0
x_14_5_2 0
x_14_6_2 0
x_14_4_3 0
x_14_5_3 0
x_14_6_3 0
x_14_5_4 0
x_14_6_4 0
x_14_6_5 0
x_15_1_0 0
x_15_2_0 0
x_15_3_0 0
x_15_4_0 0
x_15_5_0 0
x_15_6_0 0
x_15_2_1 1
x_15_3_1 0
x_15_4_1 0
x_15_5_1 0
x_15_6_1 0
x_15_3_2 0
x_15_4_2 0
x_15_5_2 0
x_15_6_2 0
x_15_4_3 0
x_15_5_3 0
x_15_6_3 0
x_15_5_4 0
x_15_6_4 0
x_15_6_5 0
x_16_1_0 0
x_16_2_0 0
x_16_3_0 0
x_16_4_0 0
x_16_5_0 0
x_16_6_0 0
x_16_2_1 1
x_16_3_1 0
x_16_4_1 0
x_16_5_1 0
x_16_6_1 0
x_16_3_2 0
x_16_4_2 0
x_16_5_2 0
x_16_6_2 0
x_16_4_3 0
x_16_5_3 0
x_16_6_3 0
x_16_5_4 0
x_16_6_4 0
x_16_6_5 0
x_17_1_0 0
x_17_2_0 0
x_17_3_0 0
x_17_4_0 0
x_17_5_0 0
x_17_6_0 0
x_17_2_1 1
x_17_3_1 0
x_17_4_1 0
x_17_5_1 0
x_17_6_1 0
x_17_3_2 0
x_17_4_2 0
x_17_5_2 0
x_17_6_2 0
x_17_4_3 0
x_17_5_3 0
x_17_6_3 0
x_17_5_4 0
x_17_6_4 0
x_17_6_5 0
x_18_1_0 0
x_18_2_0 0
x_18_3_0 0
x_18_4_0 0
x_18_5_0 0
x_18_6_0 0
x_18_2_1 1
x_18_3_1 0
x_18_4_1 0
x_18_5_1 0
x_18_6_1 0
x_18_3_2 0
x_18_4_2 0
x_18_5_2 0
x_18_6_2 0
x_18_4_3 0
x_18_5_3 0
x_18_6_3 0
x_18_5_4 0
x_18_6_4 0
x_18_6_5 0
x_19_1_0 0
x_19_2_0 0
x_19_3_0 0
x_19_4_0 0
x_19_5_0 0
x_19_6_0 0
x_19_7_0 0
x_19_2_1 1
x_19_3_1 0
x_19_4_1 0
x_19_5_1 0
x_19_6_1 0
x_19_7_1 0
x_19_3_2 0
x_19_4_2 0
x_19_5_2 0
x_19_6_2 0
x_19_7_2 0
x_19_4_3 1
x_19_5_3 0
x_19_6_3 0
x_19_7_3 0
x_19_5_4 0
x_19_6_4 0
x_19_7_4 0
x_19_6_5 0
x_19_7_5 0
x_19_7_6 0
x_20_1_0 0
x_20_2_0 0
x_20_3_0 0
x_20_4_0 0
x_20_5_0 0
x_20_6_0 0
x_20_7_0 0
x_20_2_1 1
x_20_3_1 0
x_20_4_1 0
x_20_5_1 0
x_20_6_1 0
x_20_7_1 0
x_20_3_2 0
x_20_4_2 0
x_20_5_2 0
x_20_6_2 0
x_20_7_2 0
x_20_4_3 1
x_20_5_3 0
x_20_6_3 0
x_20_7_3 0
x_20_5_4 0
x_20_6_4 0
x_20_7_4 0
x_20_6_5 0
x_20_7_5 0
x_20_7_6 0
x_21_1_0 0
x_21_2_0 0
x_21_3_0 0
x_21_4_0 0
x_21_5_0 0
x_21_6_0 0
x_21_7_0 0
x_21_2_1 1
x_21_3_1 0
x_21_4_1 0
x_21_5_1 0
x_21_6_1 0
x_21_7_1 0
x_21_3_2 0
x_21_4_2 0
x_21_5_2 0
x_21_6_2 0
x_21_7_2 0
x_21_4_3 1
x_21_5_3 0
x_21_6_3 0
x_21_7_3 0
x_21_5_4 0
x_21_6_4 0
x_21_7_4 0
x_21_6_5 0
x_21_7_5 0
x_21_7_6 0
x_22_1_0 0
x_22_2_0 0
x_22_3_0 0
x_22_4_0 0
x_22_5_0 0
x_22_6_0 0
x_22_7_0 0
x_22_2_1 1
x_22_3_1 0
x_22_4_1 0
x_22_5_1 0
x_22_6_1 0
x_22_7_1 0
x_22_3_2 0
x_22_4_2 0
x_22_5_2 0
x_22_6_2 0
x_22_7_2 0
x_22_4_3 1
x_22_5_3 0
x_22_6_3 0
x_22_7_3 0
x_22_5_4 0
x_22_6_4 0
x_22_7_4 0
x_22_6_5 0
x_22_7_5 0
x_22_7_6 0
x_23_1_0 0
x_23_2_0 0
x_23_4_0 0
x_23_5_0 0
x_23_6_0 0
x_23_7_0 0
x_23_8_0 0
x_23_2_1 1
x_23_4_1 0
x_23_5_1 0
x_23_6_1 0
x_23_7_1 0
x_23_8_1 0
x_23_4_2 0
x_23_5_2 0
x_23_6_2 0
x_23_7_2 0
x_23_8_2 0
x_23_5_4 0
x_23_6_4 0
x_23_7_4 0
x_23_4_8 0
x_23_8_4 1
x_23_6_5 0
x_23_7_5 0
x_23_8_5 1
x_23_7_6 0
x_23_8_6 1
x_23_8_7 1
x_24_1_0 0
x_24_2_0 0
x_24_5_0 0
x_24_6_0 0
x_24_7_0 0
x_24_8_0 0
x_24_2_1 1
x_24_5_1 0
x_24_6_1 0
x_24_7_1 0
x_24_8_1 0
x_24_5_2 0
x_24_6_2 0
x_24_7_2 0
x_24_8_2 0
x_24_6_5 0
x_24_7_5 0
x_24_8_5 1
x_24_7_6 0
x_24_8_6 1
x_24_8_7 1
x_25_1_0 0
x_25_2_0 0
x_25_5_0 0
x_25_6_0 0
x_25_7_0 0
x_25_8_0 0
x_25_2_1 1
x_25_5_1 0
x_25_6_1 0
x_25_7_1 0
x_25_8_1 0
x_25_5_2 0
x_25_6_2 0
x_25_7_2 0
x_25_8_2 0
x_25_6_5 0
x_25_7_5 0
x_25_8_5 1
x_25_7_6 0
x_25_8_6 1
x_25_8_7 1
x_26_1_0 0
x_26_2_0 0
x_26_5_0 0
x_26_6_0 0
x_26_7_0 0
x_26_8_0 0
x_26_2_1 1
x_26_5_1 0
x_26_6_1 0
x_26_7_1 0
x_26_8_1 0
x_26_5_2 0
x_26_6_2 0
x_26_7_2 0
x_26_8_2 0
x_26_6_5 0
x_26_7_5 0
x_26_8_5 1
x_26_7_6 0
x_26_8_6 1
x_26_8_7 1
x_27_1_0 0
x_27_2_0 0
x_27_6_0 0
x_27_7_0 0
x_27_8_0 0
x_27_2_1 1
x_27_6_1 0
x_27_7_1 0
x_27_8_1 0
x_27_6_2 0
x_27_7_2 0
x_27_8_2 0
x_27_7_6 0
x_27_8_6 1
x_27_8_7 1
x_28_1_0 0
x_28_2_0 0
x_28_6_0 0
x_28_7_0 0
x_28_8_0 0
x_28_2_1 1
x_28_6_1 0
x_28_7_1 0
x_28_8_1 0
x_28_6_2 0
x_28_7_2 0
x_28_8_2 0
x_28_7_6 0
x_28_8_6 1
x_28_8_7 1
x_29_1_0 0
x_29_2_0 0
x_29_6_0 0
x_29_7_0 0
x_29_8_0 0
x_29_2_1 1
x_29_6_1 0
x_29_7_1 0
x_29_8_1 0
x_29_6_2 0
x_29_7_2 0
x_29_8_2 0
x_29_7_6 0
x_29_8_6 1
x_29_8_7 1
x_30_1_0 0
x_30_2_0 0
x_30_6_0 0
x_30_7_0 0
x_30_8_0 0
x_30_2_1 1
x_30_6_1 0
x_30_7_1 0
x_30_8_1 0
x_30_6_2 0
x_30_7_2 0
x_30_8_2 0
x_30_7_6 0
x_30_8_6 1
x_30_8_7 1
x_31_1_0 0
x_31_2_0 0
x_31_6_0 0
x_31_7_0 0
x_31_8_0 0
x_31_2_1 1
x_31_6_1 0
x_31_7_1 0
x_31_8_1 0
x_31_6_2 0
x_31_7_2 0
x_31_8_2 0
x_31_7_6 0
x_31_8_6 0
x_31_8_7 1
x_32_1_0 0
x_32_2_0 0
x_32_6_0 0
x_32_7_0 0
x_32_8_0 0
x_32_2_1 1
x_32_6_1 0
x_32_7_1 0
x_32_8_1 0
x_32_6_2 0
x_32_7_2 0
x_32_8_2 0
x_32_7_6 0
x_32_8_6 0
x_32_8_7 1
x_33_1_0 0
x_33_2_0 0
x_33_6_0 0
x_33_7_0 0
x_33_8_0 0
x_33_2_1 1
x_33_6_1 0
x_33_7_1 0
x_33_8_1 0
x_33_6_2 0
x_33_7_2 0
x_33_8_2 0
x_33_7_6 0
x_33_8_6 0
x_33_8_7 1
x_34_1_0 0
x_34_2_0 0
x_34_6_0 0
x_34_7_0 0
x_34_8_0 0
x_34_2_1 1
x_34_6_1 0
x_34_7_1 0
x_34_8_1 0
x_34_6_2 0
x_34_7_2 0
x_34_8_2 0
x_34_7_6 0
x_34_8_6 0
x_34_8_7 1
x_35_1_0 0
x_35_2_0 0
x_35_6_0 0
x_35_7_0 0
x_35_8_0 0
x_35_2_1 1
x_35_6_1 0
x_35_7_1 0
x_35_8_1 0
x_35_6_2 0
x_35_7_2 0
x_35_8_2 0
x_35_7_6 0
x_35_8_6 0
x_35_8_7 1
x_36_1_0 0
x_36_2_0 0
x_36_6_0 0
x_36_7_0 0
x_36_8_0 0
x_36_2_1 1
x_36_6_1 1
x_36_7_1 1
x_36_8_1 0
x_36_6_2 0
x_36_7_2 0
x_36_8_2 0
x_36_7_6 1
x_36_8_6 0
x_36_8_7 0
x_37_1_0 0
x_37_2_0 0
x_37_6_0 0
x_37_8_0 0
x_37_2_1 1
x_37_6_1 1
x_37_8_1 0
x_37_6_2 0
x_37_8_2 0
x_37_8_6 0
x_38_2_1 1
x_38_8_1 0
x_38_8_2 0
x_39_2_1 1
x_39_8_1 0
x_39_8_2 0
x_40_8_1 0
